(set-info :smt-lib-version 2.6)
(set-logic QF_UFLRA)
(set-info :source |
MathSat group

|)
(set-info :category "random")
(set-info :status unsat)
(declare-fun f0_1 (Real) Real)
(declare-fun f0_2 (Real Real) Real)
(declare-fun f0_3 (Real Real Real) Real)
(declare-fun f0_4 (Real Real Real Real) Real)
(declare-fun f1_1 (Real) Real)
(declare-fun f1_2 (Real Real) Real)
(declare-fun f1_3 (Real Real Real) Real)
(declare-fun f1_4 (Real Real Real Real) Real)
(declare-fun x0 () Real)
(declare-fun x1 () Real)
(declare-fun x2 () Real)
(declare-fun x3 () Real)
(declare-fun x4 () Real)
(declare-fun x5 () Real)
(declare-fun x6 () Real)
(declare-fun x7 () Real)
(declare-fun x8 () Real)
(declare-fun x9 () Real)
(declare-fun x10 () Real)
(declare-fun x11 () Real)
(declare-fun x12 () Real)
(declare-fun x13 () Real)
(declare-fun x14 () Real)
(declare-fun x15 () Real)
(declare-fun x16 () Real)
(declare-fun x17 () Real)
(declare-fun x18 () Real)
(declare-fun x19 () Real)
(declare-fun P0 () Bool)
(declare-fun P1 () Bool)
(declare-fun P2 () Bool)
(declare-fun P3 () Bool)
(declare-fun P4 () Bool)
(declare-fun P5 () Bool)
(declare-fun P6 () Bool)
(declare-fun P7 () Bool)
(declare-fun P8 () Bool)
(declare-fun P9 () Bool)
(declare-fun P10 () Bool)
(declare-fun P11 () Bool)
(declare-fun P12 () Bool)
(declare-fun P13 () Bool)
(declare-fun P14 () Bool)
(declare-fun P15 () Bool)
(declare-fun P16 () Bool)
(declare-fun P17 () Bool)
(declare-fun P18 () Bool)
(declare-fun P19 () Bool)
(assert (let ((?v_19 (f1_2 x6 x6)) (?v_12 (f1_1 x9)) (?v_32 (f0_1 x13))) (let ((?v_39 (f0_2 ?v_12 x5)) (?v_5 (f1_1 x8)) (?v_89 (f1_1 x19)) (?v_21 (- (- (* 8 x3) (* 23 x5)) (* 6 ?v_32))) (?v_51 (f1_2 x14 x1))) (let ((?v_24 (+ (- (* 17 x2) (* 19 x5)) (* 20 ?v_5))) (?v_26 (f0_2 x5 x11)) (?v_157 (- (- (* 13 x19) (* 14 x4)) (* 17 x14))) (?v_4 (f0_1 x0)) (?v_91 (f1_1 x3)) (?v_132 (f0_2 x13 x17)) (?v_7 (f0_1 x8)) (?v_23 (f0_1 (f1_1 x14))) (?v_81 (f0_1 x10)) (?v_99 (f1_2 x12 x7)) (?v_179 (f1_1 x6)) (?v_130 (f0_1 x1)) (?v_9 (f0_1 x12)) (?v_71 (f0_2 x2 x5)) (?v_57 (- (+ (* 21 x5) (* 18 x10)) (* 20 x12))) (?v_43 (f1_1 x15)) (?v_16 (f0_2 x11 x5)) (?v_85 (f1_1 x7))) (let ((?v_178 (< ?v_4 7)) (?v_78 (= ?v_39 x13)) (?v_222 (= ?v_21 ?v_5)) (?v_47 (< ?v_26 25)) (?v_17 (< ?v_12 24)) (?v_110 (= ?v_4 ?v_51)) (?v_126 (< x4 18)) (?v_73 (< ?v_57 24)) (?v_68 (= ?v_179 x19)) (?v_139 (< ?v_99 25)) (?v_63 (< x4 17)) (?v_145 (= x16 ?v_130)) (?v_37 (< x7 24)) (?v_90 (< ?v_91 26)) (?v_155 (= (- (- (* 21 ?v_5) (* 19 ?v_21)) (* 14 ?v_5)) ?v_99)) (?v_40 (= (f0_1 x2) ?v_43)) (?v_189 (< ?v_89 28)) (?v_143 (< x8 5)) (?v_186 (< ?v_132 6)) (?v_136 (= x18 x14)) (?v_14 (< ?v_85 12)) (?v_64 (< x17 3)) (?v_103 (< x17 22)) (?v_96 (< x13 23)) (?v_18 (< ?v_16 7)) (?v_160 (= ?v_51 x19)) (?v_61 (< ?v_43 18)) (?v_119 (< ?v_57 26)) (?v_45 (= ?v_21 x10)) (?v_36 (< ?v_23 12)) (?v_46 (< (f0_2 x6 x4) 15)) (?v_134 (= x13 ?v_130)) (?v_211 (< (f0_2 x6 ?v_179) 4)) (?v_175 (< ?v_23 16)) (?v_87 (= x0 x14)) (?v_122 (< ?v_5 22)) (?v_42 (< x1 8)) (?v_164 (< ?v_157 9)) (?v_197 (= ?v_39 x1)) (?v_161 (= ?v_5 ?v_16))) (let ((?v_173 (not ?v_17)) (?v_101 (not P3)) (?v_6 (not P18)) (?v_203 (not ?v_145)) (?v_41 (not ?v_175)) (?v_53 (not ?v_37)) (?v_153 (not ?v_14)) (?v_88 (not P5)) (?v_239 (not ?v_36)) (?v_202 (not P1)) (?v_54 (not P7)) (?v_50 (not P12)) (?v_138 (not ?v_197)) (?v_141 (not P9)) (?v_228 (not P8)) (?v_207 (not ?v_68)) (?v_154 (not ?v_61)) (?v_70 (not ?v_47)) (?v_114 (not P11)) (?v_230 (not ?v_96)) (?v_116 (not P2)) (?v_135 (not ?v_63)) (?v_133 (not ?v_64)) (?v_238 (not ?v_73)) (?v_181 (not P17)) (?v_232 (not ?v_87)) (?v_244 (not ?v_126)) (?v_205 (not ?v_143)) (?v_231 (not P15)) (?v_240 (not ?v_178)) (?v_221 (not P19)) (?v_146 (not ?v_189)) (?v_149 (not P14)) (?v_215 (not P4)) (?v_204 (not ?v_40)) (?v_199 (not ?v_139)) (?v_131 (not ?v_222)) (?v_172 (not ?v_110)) (?v_183 (not ?v_90)) (?v_144 (not ?v_122)) (?v_171 (not P13)) (?v_163 (not ?v_103)) (?v_150 (not ?v_78)) (?v_162 (not P10)) (?v_184 (not ?v_155)) (?v_252 (not P0)) (?v_187 (not ?v_160)) (?v_208 (not ?v_161)) (?v_177 (not ?v_42)) (?v_198 (not ?v_164)) (?v_182 (not ?v_45)) (?v_251 (not ?v_136)) (?v_248 (not ?v_186)) (?v_201 (not ?v_134)) (?v_229 (not ?v_211)) (?v_250 (not ?v_46)) (?v_227 (not ?v_119)) (?v_237 (not P16)) (?v_3 (+ (* 13 x8) (* 9 x5) (* 8 x0)))) (let ((?v_22 (< ?v_3 17))) (let ((?v_174 (not ?v_22)) (?v_28 (= ?v_16 ?v_3))) (let ((?v_253 (not ?v_28)) (?v_30 (+ (* 22 x12) (* 21 x3) (* 3 x1)))) (let ((?v_77 (= x16 ?v_30))) (let ((?v_108 (not ?v_77)) (?v_226 (< (+ (* 25 x13) (* 10 x6) (* 26 x4)) 8))) (let ((?v_165 (not ?v_226)) (?v_148 (< ?v_19 (- 14)))) (let ((?v_79 (not ?v_148)) (?v_1 (+ (- (* (- 17) x5) (* 4 x9)) (* 12 x13)))) (let ((?v_0 (+ (* 19 ?v_1) (* 17 x17) (* 25 x11)))) (let ((?v_102 (< ?v_0 6))) (let ((?v_2 (not ?v_102)) (?v_52 (= ?v_9 ?v_0))) (let ((?v_82 (not ?v_52)) (?v_217 (= (f0_1 ?v_1) ?v_4))) (let ((?v_100 (not ?v_217)) (?v_233 (< ?v_1 16))) (let ((?v_62 (not ?v_233)) (?v_25 (< (+ (* (- 11) x6) (* 14 x10) (* 8 x8)) 14)) (?v_35 (< (- (- (* (- 20) ?v_7) (* 7 x15)) (* 12 (+ (- (* (- 18) x5) (* 18 x15)) (* 24 x18)))) 4)) (?v_31 (= ?v_1 x11))) (let ((?v_137 (not ?v_31)) (?v_10 (+ (* (- 18) x1) (* 19 ?v_4) (* 7 x9)))) (let ((?v_105 (= ?v_10 ?v_1)) (?v_8 (< ?v_71 (- 4))) (?v_98 (< ?v_1 (- 24)))) (let ((?v_92 (not ?v_98)) (?v_20 (+ (* (- 4) x16) (* 21 x10) (* 28 x18)))) (let ((?v_59 (< ?v_20 (- 16)))) (let ((?v_219 (not ?v_59)) (?v_49 (< ?v_7 (- 29)))) (let ((?v_11 (not ?v_49)) (?v_13 (< ?v_81 (- 1))) (?v_29 (- (- (* (- 3) x11) (* 16 x14)) (* 5 x12)))) (let ((?v_192 (< ?v_29 29)) (?v_117 (not ?v_8)) (?v_15 (< ?v_24 (- 13)))) (let ((?v_190 (not ?v_15)) (?v_125 (< ?v_5 (- 2))) (?v_156 (< ?v_9 (- 4)))) (let ((?v_152 (not ?v_156)) (?v_83 (< ?v_10 28)) (?v_27 (< ?v_10 (- 1))) (?v_38 (not ?v_13)) (?v_124 (< (- (- (* (- 20) x9) (* 11 x9)) (* 16 x12)) 0))) (let ((?v_93 (not ?v_124)) (?v_58 (+ (- (* (- 26) x7) (* 16 x6)) (* 21 x11)))) (let ((?v_80 (= ?v_58 ?v_26)) (?v_48 (- (- (* 22 ?v_1) (* 16 ?v_132)) (* 3 ?v_30)))) (let ((?v_95 (< ?v_48 25)) (?v_34 (+ (* (- 21) x14) (* 17 ?v_19) (* 3 ?v_20)))) (let ((?v_118 (= ?v_34 ?v_21)) (?v_107 (< ?v_89 (- 12))) (?v_33 (< ?v_24 (- 22))) (?v_55 (< ?v_29 (- 17))) (?v_75 (- (+ (* (- 11) ?v_26) (* 14 x7)) (* 21 (- (- (* 19 x6) ?v_30) (* 6 ?v_5)))))) (let ((?v_84 (< ?v_75 (- 24))) (?v_60 (< (f1_2 ?v_1 ?v_32) (- 12)))) (let ((?v_188 (not ?v_60)) (?v_158 (< ?v_34 (- 17))) (?v_167 (not ?v_35)) (?v_86 (< ?v_4 (- 13)))) (let ((?v_255 (or ?v_38 ?v_86)) (?v_44 (- (+ (* (- 27) x1) (* 15 x11)) (* 15 x6)))) (let ((?v_169 (< ?v_44 6))) (let ((?v_213 (not ?v_169)) (?v_123 (= ?v_32 ?v_29)) (?v_67 (< ?v_12 (- 16)))) (let ((?v_128 (not ?v_67)) (?v_115 (= ?v_44 (f1_1 ?v_21))) (?v_56 (f1_1 ?v_48))) (let ((?v_109 (= ?v_56 ?v_24)) (?v_104 (< ?v_43 (- 2))) (?v_196 (< ?v_7 (- 17))) (?v_140 (= (+ (- (* (- 15) x0) (* 4 ?v_21)) (* 3 x4)) ?v_56)) (?v_65 (< ?v_57 (- 6))) (?v_69 (< ?v_29 0))) (let ((?v_66 (not ?v_69)) (?v_212 (< ?v_58 15))) (let ((?v_76 (not ?v_212)) (?v_106 (< x2 (- 5)))) (let ((?v_111 (not ?v_106)) (?v_72 (< ?v_5 (- 10))) (?v_94 (= ?v_34 ?v_4))) (let ((?v_120 (not ?v_94)) (?v_236 (not ?v_33)) (?v_127 (< ?v_71 (- 11))) (?v_74 (not ?v_72)) (?v_113 (< ?v_75 2)) (?v_176 (< ?v_81 (- 22))) (?v_129 (not ?v_55)) (?v_142 (not ?v_84)) (?v_206 (< ?v_85 (- 4))) (?v_159 (< ?v_91 (- 27))) (?v_97 (< (- (+ (* (- 24) x12) (* 11 x19)) (* 27 x17)) (- 11))) (?v_180 (= ?v_44 ?v_4))) (let ((?v_121 (not ?v_180)) (?v_170 (< ?v_30 (- 15))) (?v_112 (not ?v_105)) (?v_210 (not ?v_107)) (?v_168 (< x9 (- 22))) (?v_185 (< ?v_3 (- 1))) (?v_195 (not ?v_115)) (?v_191 (not ?v_125)) (?v_166 (not ?v_97)) (?v_200 (not ?v_104)) (?v_220 (not ?v_109)) (?v_147 (not ?v_86)) (?v_193 (not ?v_140)) (?v_151 (not ?v_113)) (?v_214 (not ?v_80)) (?v_243 (< ?v_157 (- 17))) (?v_224 (not ?v_158)) (?v_209 (not ?v_159))) (let ((?v_194 (not ?v_168)) (?v_235 (not ?v_170)) (?v_241 (or ?v_180 ?v_138)) (?v_245 (not ?v_185)) (?v_234 (or ?v_80 ?v_141)) (?v_247 (not ?v_83)) (?v_223 (not ?v_192)) (?v_216 (not ?v_25)) (?v_218 (not ?v_127)) (?v_249 (not ?v_123)) (?v_225 (not ?v_196)) (?v_246 (not ?v_95)) (?v_242 (not ?v_118)) (?v_254 (not ?v_27))) (and (and (and (and (and (and (and (and (and (and (and (and (and (and (and (and (and (and (and (and (and (and (and (and (and (and (and (and (and (and (and (and (and (and (and (and (and (and (and (and (and (and (and (and (and (and (and (and (and (and (and (and (and (and (and (and (and (and (and (and (and (and (and (and (and (and (and (and (and (and (and (and (and (and (and (and (and (and (and (and (and (and (and (and (and (and (and (and (and (and (and (and (and (and (and (and (and (and (and (and (and (and (and (and (and (and (and (and (and (and (and (and (and (and (and (and (and (and (and (and (and (and (and (and (and (and (and (and (and (and (and (and (and (and (and (and (and (and (and (and (and (and (and (and (and (and (and (and (and (and (and (and (and (and (and (and (and (and (and (and (and (and (and (and (and (and (and (and (and (and (and (and (and (and (and (and (and (and (and (and (and (and (and (and (and (and (and (and (and (and (and (and (and (and (and (and (and (and (and (and (and (and (and (and (and (and (and (and (and (and (and (and (and (and (and (and (and (and (and (and (and (and (and (and (and (and (and (and (and (and (and (and (and (and (and (and (and (and (and (and (and (and (and (and (and (and (and (and (and (and (and (and (and (and (and (and (and (and (and (and (and (and (and (and (and (and (and (and (and (and (and (and (and (and (and (and (and (and (and (and (and (and (and (and (and (and (and (and (and (and (and (and (and (and (and (and (and (and (and (and (and (and (and (and (and (and (and (and (and (and (and (and (and (and (and (and (and (and (and (and (and (and (and (and (and (and (and (and (and (and (and (and (and (and (and (and (and (and (and (and (and (and (and (and (and (and (and (and (and (and (and (and (and (and (and (and (and (and (and (and (and (and (and (and (and (and (and (and (and (and (and (and (and (and (and (and (and (and (and (and (and (and (and (and (and (and (and (and (and (and (and (and (and (and (and (and (and (and (and (or (or ?v_79 ?v_2) P2) (or (or ?v_82 ?v_100) ?v_173)) (or (or P9 ?v_2) ?v_62)) (or (or P17 ?v_25) ?v_174)) (or (or ?v_35 ?v_253) ?v_101)) (or (or ?v_14 ?v_137) ?v_6)) (or (or ?v_105 ?v_8) ?v_40)) (or (or ?v_92 ?v_155) ?v_6)) (or (or ?v_219 ?v_11) ?v_203)) (or (or P2 ?v_13) ?v_192)) (or (or ?v_164 ?v_117) P15)) (or (or ?v_190 ?v_125) ?v_119)) (or (or ?v_152 ?v_83) ?v_11)) (or (or ?v_41 ?v_53) ?v_27)) (or (or ?v_46 ?v_78) ?v_38)) (or (or ?v_153 ?v_93) ?v_15)) (or (or ?v_18 ?v_17) ?v_88)) (or (or ?v_80 ?v_95) P2)) (or (or ?v_18 P6) ?v_118)) (or (or ?v_22 ?v_239) ?v_107)) (or (or ?v_33 ?v_25) ?v_47)) (or (or ?v_27 ?v_28) ?v_45)) (or (or ?v_55 ?v_84) ?v_31)) (or (or ?v_188 ?v_33) ?v_158)) (or (or ?v_202 ?v_54) ?v_50)) (or (or ?v_167 ?v_36) ?v_37)) (or ?v_255 ?v_138)) (or (or ?v_103 ?v_63) P10)) (or (or ?v_141 P13) ?v_90)) (or (or ?v_40 ?v_213) ?v_42)) (or (or ?v_41 ?v_228) ?v_22)) (or (or ?v_160 ?v_42) ?v_123)) (or (or ?v_22 ?v_207) ?v_128)) (or (or ?v_154 ?v_77) ?v_115)) (or (or ?v_45 ?v_46) ?v_161)) (or (or ?v_70 P2) ?v_109)) (or (or ?v_104 ?v_49) ?v_28)) (or (or ?v_50 P19) ?v_110)) (or (or ?v_114 P12) ?v_64)) (or (or ?v_196 P5) ?v_14)) (or (or ?v_52 ?v_53) ?v_54)) (or (or ?v_55 ?v_140) ?v_65)) (or (or P13 ?v_230) ?v_66)) (or (or ?v_41 ?v_76) ?v_111)) (or (or ?v_17 ?v_59) ?v_116)) (or (or ?v_60 ?v_61) ?v_62)) (or (or ?v_72 P15) ?v_135)) (or (or ?v_133 ?v_65) ?v_66)) (or (or ?v_67 ?v_68) ?v_69)) (or (or ?v_17 ?v_70) ?v_120)) (or (or ?v_64 ?v_236) ?v_50)) (or (or ?v_73 ?v_127) P1)) (or (or ?v_66 ?v_74) ?v_46)) (or (or ?v_238 ?v_181) ?v_15)) (or (or ?v_74 ?v_113) ?v_35)) (or (or ?v_46 ?v_76) ?v_108)) (or (or ?v_8 ?v_232) ?v_36)) (or (or ?v_244 ?v_78) ?v_79)) (or (or ?v_80 (not ?v_176)) ?v_205)) (or (or ?v_231 ?v_41) ?v_82)) (or (or ?v_74 ?v_129) ?v_83)) (or (or ?v_240 ?v_142) ?v_28)) (or (or ?v_221 ?v_64) ?v_206)) (or (or ?v_86 ?v_87) ?v_88)) (or (or ?v_146 ?v_37) ?v_27)) (or (or ?v_37 ?v_37) ?v_122)) (or (or ?v_72 ?v_149) ?v_90)) (or (or ?v_159 ?v_92) ?v_82)) (or (or ?v_93 ?v_92) ?v_215)) (or (or ?v_11 ?v_97) ?v_94)) (or (or ?v_95 ?v_90) ?v_204)) (or (or ?v_96 ?v_97) ?v_121)) (or (or ?v_98 ?v_199) ?v_100)) (or (or ?v_101 ?v_102) ?v_55)) (or (or ?v_131 ?v_88) ?v_27)) (or (or ?v_69 ?v_103) ?v_104)) (or (or ?v_79 ?v_59) P6)) (or (or P6 ?v_68) ?v_170)) (or (or ?v_112 ?v_65) ?v_106)) (or (or ?v_210 ?v_108) ?v_88)) (or (or P9 ?v_109) P5)) (or (or ?v_172 ?v_52) ?v_168)) (or (or ?v_102 ?v_73) ?v_111)) (or (or ?v_38 ?v_165) ?v_185)) (or (or ?v_112 P12) ?v_113)) (or (or ?v_114 ?v_195) ?v_116)) (or (or P2 ?v_117) ?v_118)) (or (or ?v_119 ?v_11) P5)) (or (or ?v_119 ?v_136) ?v_183)) (or (or ?v_103 P19) ?v_120)) (or (or ?v_27 ?v_121) ?v_144)) (or (or ?v_123 ?v_112) ?v_124)) (or (or ?v_64 ?v_191) ?v_126)) (or (or ?v_36 ?v_83) ?v_127)) (or (or ?v_35 ?v_128) P11)) (or (or ?v_18 ?v_22) ?v_60)) (or (or P16 ?v_171) ?v_129)) (or (or ?v_134 ?v_93) ?v_131)) (or (or ?v_166 ?v_15) ?v_200)) (or (or ?v_121 ?v_220) ?v_186)) (or (or ?v_133 ?v_147) ?v_134)) (or (or ?v_135 ?v_127) ?v_82)) (or (or ?v_136 ?v_137) ?v_138)) (or (or ?v_112 ?v_124) ?v_139)) (or (or ?v_102 ?v_104) ?v_67)) (or (or ?v_63 P10) ?v_140)) (or (or ?v_68 ?v_141) ?v_163)) (or (or P10 ?v_142) ?v_127)) (or (or ?v_143 ?v_193) ?v_144)) (or (or ?v_124 ?v_137) ?v_150)) (or (or ?v_145 ?v_17) ?v_146)) (or (or ?v_96 ?v_147) P2)) (or (or ?v_148 ?v_15) ?v_149)) (or (or ?v_124 ?v_140) ?v_150)) (or (or ?v_151 P3) ?v_142)) (or (or ?v_151 ?v_162) ?v_152)) (or (or ?v_153 ?v_214) ?v_154)) (or (or ?v_8 ?v_129) ?v_107)) (or (or ?v_184 ?v_151) ?v_156)) (or (or ?v_68 P3) P14)) (or (or ?v_252 ?v_141) ?v_149)) (or (or ?v_243 ?v_224) ?v_135)) (or (or ?v_121 ?v_209) ?v_77)) (or (or ?v_187 ?v_208) ?v_70)) (or (or ?v_162 ?v_11) ?v_177)) (or (or ?v_163 ?v_152) P15)) (or (or ?v_198 ?v_165) ?v_6)) (or (or ?v_166 ?v_167) ?v_194)) (or (or ?v_96 ?v_123) ?v_86)) (or (or ?v_18 ?v_169) ?v_140)) (or (or ?v_77 ?v_31) ?v_235)) (or (or ?v_112 P4) ?v_171)) (or (or ?v_50 ?v_79) ?v_60)) (or (or ?v_172 ?v_182) ?v_173)) (or (or ?v_18 ?v_109) ?v_174)) (or (or ?v_17 ?v_124) ?v_175)) (or (or ?v_114 ?v_133) ?v_176)) (or (or ?v_177 ?v_174) ?v_72)) (or (or ?v_53 ?v_88) ?v_178)) (or (or ?v_211 ?v_109) P6)) (or (or ?v_120 ?v_46) ?v_28)) (or ?v_241 ?v_153)) (or (or ?v_167 ?v_164) ?v_181)) (or (or ?v_182 ?v_167) ?v_183)) (or (or ?v_115 ?v_251) ?v_47)) (or (or ?v_184 ?v_73) ?v_159)) (or (or ?v_117 ?v_76) P17)) (or (or ?v_77 ?v_184) ?v_245)) (or (or ?v_248 P5) ?v_28)) (or (or ?v_86 ?v_82) ?v_201)) (or (or ?v_41 ?v_187) ?v_188)) (or (or ?v_177 P11) ?v_189)) (or (or ?v_82 ?v_95) ?v_49)) (or (or ?v_78 ?v_117) ?v_50)) (or ?v_234 ?v_190)) (or (or ?v_33 ?v_186) ?v_247)) (or (or ?v_191 ?v_112) (not ?v_18))) (or (or ?v_49 ?v_102) ?v_115)) (or (or ?v_45 ?v_189) ?v_223)) (or (or ?v_181 ?v_124) ?v_8)) (or (or ?v_216 ?v_82) ?v_45)) (or (or ?v_63 ?v_155) ?v_193)) (or (or P12 ?v_70) ?v_148)) (or (or ?v_88 ?v_144) ?v_171)) (or (or ?v_194 ?v_41) ?v_195)) (or (or ?v_78 P9) ?v_67)) (or (or ?v_122 P18) ?v_196)) (or (or ?v_197 P8) ?v_118)) (or (or ?v_138 ?v_84) ?v_73)) (or (or ?v_124 ?v_198) ?v_199)) (or (or ?v_149 ?v_124) ?v_158)) (or (or ?v_190 ?v_84) ?v_200)) (or (or ?v_109 ?v_128) ?v_201)) (or (or P18 ?v_110) ?v_202)) (or (or ?v_148 ?v_128) P19)) (or (or ?v_54 P15) ?v_187)) (or (or ?v_142 ?v_203) ?v_129)) (or (or ?v_78 ?v_203) ?v_204)) (or (or ?v_175 ?v_204) ?v_183)) (or (or ?v_69 ?v_114) ?v_218)) (or (or P2 ?v_79) ?v_205)) (or (or P4 ?v_49) ?v_104)) (or (or P10 ?v_111) ?v_206)) (or (or ?v_8 ?v_151) ?v_207)) (or (or ?v_124 ?v_199) ?v_144)) (or (or ?v_208 ?v_209) ?v_210)) (or (or ?v_133 ?v_177) ?v_211)) (or (or ?v_153 ?v_116) ?v_61)) (or (or ?v_210 ?v_42) ?v_128)) (or (or ?v_145 ?v_166) ?v_128)) (or (or ?v_153 ?v_176) ?v_47)) (or (or ?v_28 ?v_164) ?v_66)) (or (or P0 ?v_77) ?v_192)) (or (or ?v_69 ?v_38) ?v_212)) (or (or ?v_150 ?v_165) ?v_54)) (or (or ?v_45 ?v_190) ?v_213)) (or (or P13 ?v_197) ?v_175)) (or (or ?v_182 ?v_178) ?v_64)) (or (or ?v_200 ?v_185) ?v_126)) (or (or ?v_112 ?v_97) ?v_209)) (or (or ?v_119 ?v_214) ?v_151)) (or (or P14 ?v_148) ?v_200)) (or (or (not ?v_206) ?v_215) ?v_216)) (or (or ?v_17 ?v_139) ?v_190)) (or (or ?v_164 ?v_14) ?v_73)) (or (or ?v_217 ?v_218) ?v_219)) (or (or P17 ?v_175) ?v_125)) (or (or ?v_159 ?v_59) ?v_101)) (or (or ?v_162 ?v_17) ?v_139)) (or (or ?v_164 ?v_208) ?v_73)) (or (or ?v_200 ?v_172) ?v_215)) (or (or ?v_145 ?v_105) ?v_150)) (or (or ?v_167 ?v_171) ?v_79)) (or (or ?v_203 ?v_200) ?v_62)) (or (or ?v_206 ?v_87) P7)) (or (or ?v_149 ?v_111) ?v_189)) (or (or ?v_201 ?v_142) ?v_220)) (or (or ?v_249 ?v_205) ?v_209)) (or (or ?v_229 ?v_176) ?v_167)) (or (or ?v_221 ?v_187) ?v_90)) (or (or ?v_41 P6) ?v_82)) (or (or ?v_22 ?v_225) ?v_76)) (or (or ?v_200 ?v_138) ?v_222)) (or (or ?v_66 ?v_70) ?v_22)) (or (or ?v_124 ?v_35) ?v_146)) (or (or ?v_154 ?v_119) ?v_195)) (or (or ?v_62 ?v_189) ?v_246)) (or (or ?v_100 ?v_33) ?v_161)) (or (or ?v_184 ?v_223) ?v_250)) (or (or ?v_224 ?v_107) ?v_82)) (or (or ?v_105 ?v_222) ?v_215)) (or (or P13 ?v_158) ?v_225)) (or (or ?v_175 ?v_226) ?v_197)) (or (or P8 ?v_69) ?v_227)) (or (or ?v_205 ?v_173) ?v_83)) (or (or ?v_133 ?v_227) ?v_84)) (or (or ?v_113 ?v_228) ?v_76)) (or (or ?v_153 ?v_100) ?v_229)) (or (or ?v_230 ?v_215) ?v_207)) (or (or ?v_42 ?v_180) ?v_154)) (or (or ?v_176 ?v_145) P19)) (or (or ?v_2 ?v_131) ?v_237)) (or (or ?v_190 ?v_54) ?v_38)) (or (or ?v_120 ?v_78) ?v_111)) (or (or ?v_67 ?v_134) ?v_231)) (or (or ?v_49 ?v_232) ?v_233)) (or (or ?v_76 ?v_219) ?v_110)) (or (or ?v_14 ?v_72) P2)) (or ?v_234 ?v_205)) (or (or ?v_203 ?v_107) ?v_223)) (or (or ?v_139 ?v_229) ?v_218)) (or (or ?v_74 ?v_68) ?v_78)) (or (or P10 ?v_124) ?v_232)) (or (or ?v_136 P16) ?v_166)) (or (or ?v_22 ?v_177) ?v_90)) (or (or P14 ?v_119) ?v_235)) (or (or P11 ?v_189) ?v_217)) (or (or ?v_59 ?v_109) ?v_182)) (or (or ?v_228 ?v_93) ?v_233)) (or (or ?v_171 P15) ?v_100)) (or (or ?v_236 ?v_52) ?v_64)) (or (or ?v_8 P2) ?v_105)) (or (or ?v_147 ?v_161) ?v_114)) (or (or ?v_103 ?v_18) ?v_235)) (or (or ?v_196 ?v_105) ?v_172)) (or (or ?v_138 ?v_218) ?v_237)) (or (or ?v_238 ?v_232) ?v_230)) (or (or ?v_239 ?v_184) ?v_240)) (or (or ?v_175 ?v_116) ?v_220)) (or (or P11 ?v_181) ?v_242)) (or (or ?v_152 ?v_27) P19)) (or (or ?v_153 ?v_221) ?v_202)) (or (or ?v_80 ?v_184) ?v_173)) (or (or P15 ?v_207) ?v_127)) (or (or ?v_158 ?v_147) ?v_40)) (or (or ?v_205 ?v_2) ?v_235)) (or (or ?v_95 P1) ?v_96)) (or (or P0 P14) P11)) (or ?v_241 P13)) (or (or ?v_238 ?v_191) ?v_223)) (or (or ?v_110 ?v_163) ?v_191)) (or (or ?v_63 ?v_173) ?v_59)) (or (or ?v_210 ?v_189) ?v_140)) (or (or ?v_216 ?v_41) ?v_184)) (or (or ?v_35 ?v_31) ?v_103)) (or (or ?v_94 ?v_171) ?v_164)) (or (or ?v_64 ?v_109) ?v_112)) (or (or ?v_55 ?v_45) ?v_151)) (or (or ?v_165 ?v_203) ?v_125)) (or (or ?v_162 ?v_149) ?v_242)) (or (or ?v_106 ?v_93) ?v_28)) (or (or ?v_60 ?v_31) ?v_2)) (or (or ?v_195 ?v_243) ?v_125)) (or (or ?v_144 ?v_84) ?v_182)) (or (or ?v_155 ?v_223) ?v_108)) (or (or ?v_2 ?v_82) ?v_120)) (or (or ?v_37 ?v_115) ?v_76)) (or (or ?v_66 ?v_115) ?v_41)) (or (or ?v_146 ?v_182) ?v_156)) (or (or ?v_231 ?v_14) P12)) (or (or ?v_41 ?v_55) ?v_244)) (or (or ?v_156 ?v_36) ?v_102)) (or (or ?v_245 ?v_246) ?v_163)) (or (or ?v_168 ?v_247) ?v_248)) (or (or ?v_224 ?v_144) ?v_245)) (or (or ?v_60 P5) ?v_47)) (or (or P19 ?v_42) ?v_175)) (or (or ?v_115 P12) ?v_37)) (or (or ?v_55 ?v_207) ?v_186)) (or (or ?v_181 ?v_146) ?v_125)) (or (or ?v_63 ?v_53) P4)) (or (or ?v_64 ?v_124) ?v_187)) (or (or ?v_83 ?v_207) ?v_94)) (or (or ?v_239 ?v_64) ?v_243)) (or (or ?v_60 ?v_196) ?v_52)) (or (or ?v_232 ?v_63) ?v_52)) (or (or ?v_243 ?v_100) P16)) (or (or ?v_28 ?v_248) ?v_154)) (or (or ?v_136 ?v_6) ?v_224)) (or (or ?v_109 ?v_164) ?v_180)) (or (or ?v_70 ?v_227) ?v_104)) (or (or P4 ?v_249) ?v_115)) (or (or P19 ?v_201) ?v_250)) (or (or ?v_211 ?v_172) ?v_92)) (or (or ?v_125 ?v_214) ?v_212)) (or (or ?v_160 ?v_208) ?v_117)) (or (or ?v_164 ?v_72) ?v_233)) (or (or ?v_172 ?v_144) ?v_140)) (or (or ?v_15 ?v_60) ?v_180)) (or (or ?v_73 ?v_181) ?v_215)) (or (or ?v_102 ?v_35) ?v_228)) (or (or ?v_206 ?v_2) ?v_77)) (or (or ?v_11 ?v_227) ?v_149)) (or (or ?v_196 ?v_226) ?v_80)) (or (or ?v_213 ?v_76) ?v_185)) (or (or ?v_53 ?v_211) ?v_11)) (or (or ?v_227 ?v_142) ?v_52)) (or (or ?v_235 ?v_236) ?v_196)) (or (or ?v_149 ?v_229) ?v_180)) (or (or ?v_243 ?v_87) ?v_240)) (or (or P2 ?v_50) P13)) (or (or ?v_230 ?v_27) ?v_82)) (or (or ?v_118 ?v_216) ?v_74)) (or (or ?v_111 ?v_82) ?v_15)) (or (or ?v_183 ?v_175) ?v_236)) (or (or ?v_206 ?v_245) P15)) (or (or ?v_117 ?v_216) ?v_203)) (or (or ?v_64 ?v_195) ?v_180)) (or (or ?v_229 ?v_223) P9)) (or (or ?v_208 ?v_86) ?v_148)) (or (or ?v_118 ?v_244) ?v_113)) (or (or ?v_146 ?v_105) ?v_66)) (or (or ?v_239 ?v_148) ?v_123)) (or (or ?v_190 ?v_134) ?v_60)) (or (or ?v_174 ?v_163) ?v_111)) (or (or ?v_172 ?v_72) ?v_145)) (or (or ?v_145 ?v_109) ?v_187)) (or (or ?v_118 ?v_33) P14)) (or (or ?v_231 ?v_233) ?v_149)) (or (or ?v_153 ?v_134) ?v_221)) (or (or ?v_142 ?v_246) ?v_217)) (or (or ?v_164 ?v_106) ?v_238)) (or (or ?v_236 ?v_249) ?v_55)) (or (or P0 ?v_161) ?v_131)) (or (or ?v_50 ?v_122) ?v_40)) (or (or ?v_134 ?v_197) ?v_78)) (or (or ?v_229 ?v_226) ?v_188)) (or (or ?v_131 ?v_221) ?v_200)) (or (or ?v_155 ?v_251) ?v_107)) (or (or ?v_223 ?v_49) ?v_222)) (or (or ?v_69 ?v_2) ?v_127)) (or (or P11 ?v_211) ?v_239)) (or (or ?v_181 ?v_167) ?v_136)) (or (or ?v_254 ?v_175) ?v_114)) (or (or ?v_82 ?v_181) P19)) (or (or ?v_111 P2) ?v_232)) (or (or P17 ?v_134) ?v_139)) (or (or ?v_199 ?v_159) ?v_201)) (or (or ?v_25 ?v_148) ?v_82)) (or (or ?v_212 ?v_216) ?v_50)) (or (or ?v_154 ?v_221) ?v_83)) (or (or ?v_252 ?v_137) ?v_164)) (or (or ?v_109 ?v_172) ?v_42)) (or (or ?v_219 ?v_223) ?v_60)) (or (or ?v_120 ?v_207) ?v_235)) (or (or P1 ?v_101) ?v_195)) (or (or ?v_135 ?v_15) ?v_37)) (or (or ?v_201 ?v_143) ?v_11)) (or (or P15 ?v_212) ?v_74)) (or (or ?v_137 ?v_200) P1)) (or (or ?v_148 ?v_206) ?v_66)) (or (or ?v_59 ?v_191) ?v_229)) (or (or ?v_237 ?v_82) ?v_181)) (or (or ?v_83 ?v_161) ?v_237)) (or (or ?v_253 ?v_215) ?v_59)) (or (or (not ?v_243) ?v_77) ?v_197)) (or (or ?v_8 ?v_200) P13)) (or (or ?v_220 ?v_254) ?v_138)) (or (or ?v_195 (not P6)) ?v_113)) (or ?v_255 ?v_218)))))))))))))))))))))))))))))))))))))))))))))))
(check-sat)
(exit)
